(set-info :smt-lib-version 2.6)
(set-logic QF_NIA)
(set-info :source |
     Constraint systems stating that a matrix interpretation is
     compatible with a rewriting system (weakly compatible with
     all rules, strictly compatible with at least one).

     Contributed by Johannes Waldmann at HTKW Leipzig.
   |)
(set-info :category "crafted")
(set-info :status sat)
(declare-fun n0 () Int)
(assert (>= n0 0))
(declare-fun n1 () Int)
(assert (>= n1 0))
(declare-fun n2 () Int)
(assert (>= n2 0))
(declare-fun n3 () Int)
(assert (>= n3 0))
(declare-fun n4 () Int)
(assert (>= n4 0))
(declare-fun n5 () Int)
(assert (>= n5 0))
(declare-fun n6 () Int)
(assert (>= n6 0))
(declare-fun n7 () Int)
(assert (>= n7 0))
(declare-fun n8 () Int)
(assert (>= n8 0))
(declare-fun n9 () Int)
(assert (>= n9 0))
(declare-fun n10 () Int)
(assert (>= n10 0))
(declare-fun n11 () Int)
(assert (>= n11 0))
(declare-fun n12 () Int)
(assert (>= n12 0))
(declare-fun n13 () Int)
(assert (>= n13 0))
(declare-fun n14 () Int)
(assert (>= n14 0))
(declare-fun n15 () Int)
(assert (>= n15 0))
(declare-fun n16 () Int)
(assert (>= n16 0))
(declare-fun n17 () Int)
(assert (>= n17 0))
(declare-fun n18 () Int)
(assert (>= n18 0))
(declare-fun n19 () Int)
(assert (>= n19 0))
(declare-fun n20 () Int)
(assert (>= n20 0))
(declare-fun n21 () Int)
(assert (>= n21 0))
(declare-fun n22 () Int)
(assert (>= n22 0))
(declare-fun n23 () Int)
(assert (>= n23 0))
(declare-fun n24 () Int)
(assert (>= n24 0))
(declare-fun n25 () Int)
(assert (>= n25 0))
(declare-fun n26 () Int)
(assert (>= n26 0))
(declare-fun n27 () Int)
(assert (>= n27 0))
(declare-fun n28 () Int)
(assert (>= n28 0))
(declare-fun n29 () Int)
(assert (>= n29 0))
(declare-fun n30 () Int)
(assert (>= n30 0))
(declare-fun n31 () Int)
(assert (>= n31 0))
(declare-fun n32 () Int)
(assert (>= n32 0))
(declare-fun n33 () Int)
(assert (>= n33 0))
(declare-fun n34 () Int)
(assert (>= n34 0))
(declare-fun n35 () Int)
(assert (>= n35 0))
(declare-fun n36 () Int)
(assert (>= n36 0))
(declare-fun n37 () Int)
(assert (>= n37 0))
(declare-fun n38 () Int)
(assert (>= n38 0))
(declare-fun n39 () Int)
(assert (>= n39 0))
(declare-fun n40 () Int)
(assert (>= n40 0))
(declare-fun n41 () Int)
(assert (>= n41 0))
(declare-fun n42 () Int)
(assert (>= n42 0))
(declare-fun n43 () Int)
(assert (>= n43 0))
(declare-fun n44 () Int)
(assert (>= n44 0))
(declare-fun n45 () Int)
(assert (>= n45 0))
(declare-fun n46 () Int)
(assert (>= n46 0))
(declare-fun n47 () Int)
(assert (>= n47 0))
(declare-fun n48 () Int)
(assert (>= n48 0))
(declare-fun n49 () Int)
(assert (>= n49 0))
(declare-fun n50 () Int)
(assert (>= n50 0))
(declare-fun n51 () Int)
(assert (>= n51 0))
(declare-fun n52 () Int)
(assert (>= n52 0))
(declare-fun n53 () Int)
(assert (>= n53 0))
(declare-fun n54 () Int)
(assert (= n54 (* n20 n18)))
(declare-fun n55 () Int)
(assert (= n55 (* n21 n19)))
(declare-fun n56 () Int)
(assert (= n56 (* n22 n18)))
(declare-fun n57 () Int)
(assert (= n57 (* n23 n19)))
(declare-fun n58 () Int)
(assert (= n58 (+ n54 n55)))
(declare-fun n59 () Int)
(assert (= n59 (+ n56 n57)))
(declare-fun n60 () Int)
(assert (= n60 (+ n18 n58)))
(declare-fun n61 () Int)
(assert (= n61 (+ n19 n59)))
(declare-fun n62 () Int)
(assert (= n62 (* n20 n20)))
(declare-fun n63 () Int)
(assert (= n63 (* n21 n22)))
(declare-fun n64 () Int)
(assert (= n64 (* n20 n21)))
(declare-fun n65 () Int)
(assert (= n65 (* n21 n23)))
(declare-fun n66 () Int)
(assert (= n66 (* n22 n20)))
(declare-fun n67 () Int)
(assert (= n67 (* n23 n22)))
(declare-fun n68 () Int)
(assert (= n68 (* n22 n21)))
(declare-fun n69 () Int)
(assert (= n69 (* n23 n23)))
(declare-fun n70 () Int)
(assert (= n70 (+ n62 n63)))
(declare-fun n71 () Int)
(assert (= n71 (+ n64 n65)))
(declare-fun n72 () Int)
(assert (= n72 (+ n66 n67)))
(declare-fun n73 () Int)
(assert (= n73 (+ n68 n69)))
(declare-fun n74 () Int)
(assert (= n74 (* n70 n18)))
(declare-fun n75 () Int)
(assert (= n75 (* n71 n19)))
(declare-fun n76 () Int)
(assert (= n76 (* n72 n18)))
(declare-fun n77 () Int)
(assert (= n77 (* n73 n19)))
(declare-fun n78 () Int)
(assert (= n78 (+ n74 n75)))
(declare-fun n79 () Int)
(assert (= n79 (+ n76 n77)))
(declare-fun n80 () Int)
(assert (= n80 (+ n60 n78)))
(declare-fun n81 () Int)
(assert (= n81 (+ n61 n79)))
(declare-fun n82 () Int)
(assert (= n82 (* n70 n20)))
(declare-fun n83 () Int)
(assert (= n83 (* n71 n22)))
(declare-fun n84 () Int)
(assert (= n84 (* n70 n21)))
(declare-fun n85 () Int)
(assert (= n85 (* n71 n23)))
(declare-fun n86 () Int)
(assert (= n86 (* n72 n20)))
(declare-fun n87 () Int)
(assert (= n87 (* n73 n22)))
(declare-fun n88 () Int)
(assert (= n88 (* n72 n21)))
(declare-fun n89 () Int)
(assert (= n89 (* n73 n23)))
(declare-fun n90 () Int)
(assert (= n90 (+ n82 n83)))
(declare-fun n91 () Int)
(assert (= n91 (+ n84 n85)))
(declare-fun n92 () Int)
(assert (= n92 (+ n86 n87)))
(declare-fun n93 () Int)
(assert (= n93 (+ n88 n89)))
(declare-fun n94 () Int)
(assert (= n94 (* n44 n18)))
(declare-fun n95 () Int)
(assert (= n95 (* n45 n19)))
(declare-fun n96 () Int)
(assert (= n96 (* n46 n18)))
(declare-fun n97 () Int)
(assert (= n97 (* n47 n19)))
(declare-fun n98 () Int)
(assert (= n98 (+ n94 n95)))
(declare-fun n99 () Int)
(assert (= n99 (+ n96 n97)))
(declare-fun n100 () Int)
(assert (= n100 (+ n42 n98)))
(declare-fun n101 () Int)
(assert (= n101 (+ n43 n99)))
(declare-fun n102 () Int)
(assert (= n102 (* n44 n20)))
(declare-fun n103 () Int)
(assert (= n103 (* n45 n22)))
(declare-fun n104 () Int)
(assert (= n104 (* n44 n21)))
(declare-fun n105 () Int)
(assert (= n105 (* n45 n23)))
(declare-fun n106 () Int)
(assert (= n106 (* n46 n20)))
(declare-fun n107 () Int)
(assert (= n107 (* n47 n22)))
(declare-fun n108 () Int)
(assert (= n108 (* n46 n21)))
(declare-fun n109 () Int)
(assert (= n109 (* n47 n23)))
(declare-fun n110 () Int)
(assert (= n110 (+ n102 n103)))
(declare-fun n111 () Int)
(assert (= n111 (+ n104 n105)))
(declare-fun n112 () Int)
(assert (= n112 (+ n106 n107)))
(declare-fun n113 () Int)
(assert (= n113 (+ n108 n109)))
(declare-fun n114 () Int)
(assert (= n114 (* n16 n30)))
(declare-fun n115 () Int)
(assert (= n115 (* n17 n31)))
(declare-fun n116 () Int)
(assert (= n116 (+ n114 n115)))
(declare-fun n117 () Int)
(assert (= n117 (+ n15 n116)))
(declare-fun n118 () Int)
(assert (= n118 (* n16 n32)))
(declare-fun n119 () Int)
(assert (= n119 (* n17 n34)))
(declare-fun n120 () Int)
(assert (= n120 (* n16 n33)))
(declare-fun n121 () Int)
(assert (= n121 (* n17 n35)))
(declare-fun n122 () Int)
(assert (= n122 (+ n118 n119)))
(declare-fun n123 () Int)
(assert (= n123 (+ n120 n121)))
(declare-fun n124 () Int)
(assert (= n124 (* n16 n48)))
(declare-fun n125 () Int)
(assert (= n125 (* n17 n49)))
(declare-fun n126 () Int)
(assert (= n126 (+ n124 n125)))
(declare-fun n127 () Int)
(assert (= n127 (+ n15 n126)))
(declare-fun n128 () Int)
(assert (= n128 (* n16 n50)))
(declare-fun n129 () Int)
(assert (= n129 (* n17 n52)))
(declare-fun n130 () Int)
(assert (= n130 (* n16 n51)))
(declare-fun n131 () Int)
(assert (= n131 (* n17 n53)))
(declare-fun n132 () Int)
(assert (= n132 (+ n128 n129)))
(declare-fun n133 () Int)
(assert (= n133 (+ n130 n131)))
(assert (>= n117 n127))
(assert (>= n122 n132))
(assert (>= n123 n133))
(declare-fun n134 () Int)
(assert (= n134 (* n16 n42)))
(declare-fun n135 () Int)
(assert (= n135 (* n17 n43)))
(declare-fun n136 () Int)
(assert (= n136 (+ n134 n135)))
(declare-fun n137 () Int)
(assert (= n137 (+ n15 n136)))
(declare-fun n138 () Int)
(assert (= n138 (* n16 n44)))
(declare-fun n139 () Int)
(assert (= n139 (* n17 n46)))
(declare-fun n140 () Int)
(assert (= n140 (* n16 n45)))
(declare-fun n141 () Int)
(assert (= n141 (* n17 n47)))
(declare-fun n142 () Int)
(assert (= n142 (+ n138 n139)))
(declare-fun n143 () Int)
(assert (= n143 (+ n140 n141)))
(declare-fun n144 () Int)
(assert (= n144 (* n16 n36)))
(declare-fun n145 () Int)
(assert (= n145 (* n17 n37)))
(declare-fun n146 () Int)
(assert (= n146 (+ n144 n145)))
(declare-fun n147 () Int)
(assert (= n147 (+ n15 n146)))
(declare-fun n148 () Int)
(assert (= n148 (* n16 n38)))
(declare-fun n149 () Int)
(assert (= n149 (* n17 n40)))
(declare-fun n150 () Int)
(assert (= n150 (* n16 n39)))
(declare-fun n151 () Int)
(assert (= n151 (* n17 n41)))
(declare-fun n152 () Int)
(assert (= n152 (+ n148 n149)))
(declare-fun n153 () Int)
(assert (= n153 (+ n150 n151)))
(assert (>= n137 n147))
(assert (>= n142 n152))
(assert (>= n143 n153))
(declare-fun n154 () Int)
(assert (= n154 (* n38 n18)))
(declare-fun n155 () Int)
(assert (= n155 (* n39 n19)))
(declare-fun n156 () Int)
(assert (= n156 (* n40 n18)))
(declare-fun n157 () Int)
(assert (= n157 (* n41 n19)))
(declare-fun n158 () Int)
(assert (= n158 (+ n154 n155)))
(declare-fun n159 () Int)
(assert (= n159 (+ n156 n157)))
(declare-fun n160 () Int)
(assert (= n160 (+ n36 n158)))
(declare-fun n161 () Int)
(assert (= n161 (+ n37 n159)))
(declare-fun n162 () Int)
(assert (= n162 (* n38 n20)))
(declare-fun n163 () Int)
(assert (= n163 (* n39 n22)))
(declare-fun n164 () Int)
(assert (= n164 (* n38 n21)))
(declare-fun n165 () Int)
(assert (= n165 (* n39 n23)))
(declare-fun n166 () Int)
(assert (= n166 (* n40 n20)))
(declare-fun n167 () Int)
(assert (= n167 (* n41 n22)))
(declare-fun n168 () Int)
(assert (= n168 (* n40 n21)))
(declare-fun n169 () Int)
(assert (= n169 (* n41 n23)))
(declare-fun n170 () Int)
(assert (= n170 (+ n162 n163)))
(declare-fun n171 () Int)
(assert (= n171 (+ n164 n165)))
(declare-fun n172 () Int)
(assert (= n172 (+ n166 n167)))
(declare-fun n173 () Int)
(assert (= n173 (+ n168 n169)))
(declare-fun n174 () Int)
(assert (= n174 (* n90 n36)))
(declare-fun n175 () Int)
(assert (= n175 (* n91 n37)))
(declare-fun n176 () Int)
(assert (= n176 (* n92 n36)))
(declare-fun n177 () Int)
(assert (= n177 (* n93 n37)))
(declare-fun n178 () Int)
(assert (= n178 (+ n174 n175)))
(declare-fun n179 () Int)
(assert (= n179 (+ n176 n177)))
(declare-fun n180 () Int)
(assert (= n180 (+ n80 n178)))
(declare-fun n181 () Int)
(assert (= n181 (+ n81 n179)))
(declare-fun n182 () Int)
(assert (= n182 (* n90 n38)))
(declare-fun n183 () Int)
(assert (= n183 (* n91 n40)))
(declare-fun n184 () Int)
(assert (= n184 (* n90 n39)))
(declare-fun n185 () Int)
(assert (= n185 (* n91 n41)))
(declare-fun n186 () Int)
(assert (= n186 (* n92 n38)))
(declare-fun n187 () Int)
(assert (= n187 (* n93 n40)))
(declare-fun n188 () Int)
(assert (= n188 (* n92 n39)))
(declare-fun n189 () Int)
(assert (= n189 (* n93 n41)))
(declare-fun n190 () Int)
(assert (= n190 (+ n182 n183)))
(declare-fun n191 () Int)
(assert (= n191 (+ n184 n185)))
(declare-fun n192 () Int)
(assert (= n192 (+ n186 n187)))
(declare-fun n193 () Int)
(assert (= n193 (+ n188 n189)))
(assert (>= n160 n180))
(assert (>= n161 n181))
(assert (>= n170 n190))
(assert (>= n171 n191))
(assert (>= n172 n192))
(assert (>= n173 n193))
(declare-fun n194 () Int)
(assert (= n194 (* n50 n18)))
(declare-fun n195 () Int)
(assert (= n195 (* n51 n19)))
(declare-fun n196 () Int)
(assert (= n196 (* n52 n18)))
(declare-fun n197 () Int)
(assert (= n197 (* n53 n19)))
(declare-fun n198 () Int)
(assert (= n198 (+ n194 n195)))
(declare-fun n199 () Int)
(assert (= n199 (+ n196 n197)))
(declare-fun n200 () Int)
(assert (= n200 (+ n48 n198)))
(declare-fun n201 () Int)
(assert (= n201 (+ n49 n199)))
(declare-fun n202 () Int)
(assert (= n202 (* n50 n20)))
(declare-fun n203 () Int)
(assert (= n203 (* n51 n22)))
(declare-fun n204 () Int)
(assert (= n204 (* n50 n21)))
(declare-fun n205 () Int)
(assert (= n205 (* n51 n23)))
(declare-fun n206 () Int)
(assert (= n206 (* n52 n20)))
(declare-fun n207 () Int)
(assert (= n207 (* n53 n22)))
(declare-fun n208 () Int)
(assert (= n208 (* n52 n21)))
(declare-fun n209 () Int)
(assert (= n209 (* n53 n23)))
(declare-fun n210 () Int)
(assert (= n210 (+ n202 n203)))
(declare-fun n211 () Int)
(assert (= n211 (+ n204 n205)))
(declare-fun n212 () Int)
(assert (= n212 (+ n206 n207)))
(declare-fun n213 () Int)
(assert (= n213 (+ n208 n209)))
(declare-fun n214 () Int)
(assert (= n214 (* n90 n48)))
(declare-fun n215 () Int)
(assert (= n215 (* n91 n49)))
(declare-fun n216 () Int)
(assert (= n216 (* n92 n48)))
(declare-fun n217 () Int)
(assert (= n217 (* n93 n49)))
(declare-fun n218 () Int)
(assert (= n218 (+ n214 n215)))
(declare-fun n219 () Int)
(assert (= n219 (+ n216 n217)))
(declare-fun n220 () Int)
(assert (= n220 (+ n80 n218)))
(declare-fun n221 () Int)
(assert (= n221 (+ n81 n219)))
(declare-fun n222 () Int)
(assert (= n222 (* n90 n50)))
(declare-fun n223 () Int)
(assert (= n223 (* n91 n52)))
(declare-fun n224 () Int)
(assert (= n224 (* n90 n51)))
(declare-fun n225 () Int)
(assert (= n225 (* n91 n53)))
(declare-fun n226 () Int)
(assert (= n226 (* n92 n50)))
(declare-fun n227 () Int)
(assert (= n227 (* n93 n52)))
(declare-fun n228 () Int)
(assert (= n228 (* n92 n51)))
(declare-fun n229 () Int)
(assert (= n229 (* n93 n53)))
(declare-fun n230 () Int)
(assert (= n230 (+ n222 n223)))
(declare-fun n231 () Int)
(assert (= n231 (+ n224 n225)))
(declare-fun n232 () Int)
(assert (= n232 (+ n226 n227)))
(declare-fun n233 () Int)
(assert (= n233 (+ n228 n229)))
(assert (>= n200 n220))
(assert (>= n201 n221))
(assert (>= n210 n230))
(assert (>= n211 n231))
(assert (>= n212 n232))
(assert (>= n213 n233))
(declare-fun n234 () Int)
(assert (= n234 (* n20 n30)))
(declare-fun n235 () Int)
(assert (= n235 (* n21 n31)))
(declare-fun n236 () Int)
(assert (= n236 (* n22 n30)))
(declare-fun n237 () Int)
(assert (= n237 (* n23 n31)))
(declare-fun n238 () Int)
(assert (= n238 (+ n234 n235)))
(declare-fun n239 () Int)
(assert (= n239 (+ n236 n237)))
(declare-fun n240 () Int)
(assert (= n240 (+ n18 n238)))
(declare-fun n241 () Int)
(assert (= n241 (+ n19 n239)))
(declare-fun n242 () Int)
(assert (= n242 (* n20 n32)))
(declare-fun n243 () Int)
(assert (= n243 (* n21 n34)))
(declare-fun n244 () Int)
(assert (= n244 (* n20 n33)))
(declare-fun n245 () Int)
(assert (= n245 (* n21 n35)))
(declare-fun n246 () Int)
(assert (= n246 (* n22 n32)))
(declare-fun n247 () Int)
(assert (= n247 (* n23 n34)))
(declare-fun n248 () Int)
(assert (= n248 (* n22 n33)))
(declare-fun n249 () Int)
(assert (= n249 (* n23 n35)))
(declare-fun n250 () Int)
(assert (= n250 (+ n242 n243)))
(declare-fun n251 () Int)
(assert (= n251 (+ n244 n245)))
(declare-fun n252 () Int)
(assert (= n252 (+ n246 n247)))
(declare-fun n253 () Int)
(assert (= n253 (+ n248 n249)))
(declare-fun n254 () Int)
(assert (= n254 (* n32 n80)))
(declare-fun n255 () Int)
(assert (= n255 (* n33 n81)))
(declare-fun n256 () Int)
(assert (= n256 (* n34 n80)))
(declare-fun n257 () Int)
(assert (= n257 (* n35 n81)))
(declare-fun n258 () Int)
(assert (= n258 (+ n254 n255)))
(declare-fun n259 () Int)
(assert (= n259 (+ n256 n257)))
(declare-fun n260 () Int)
(assert (= n260 (+ n30 n258)))
(declare-fun n261 () Int)
(assert (= n261 (+ n31 n259)))
(declare-fun n262 () Int)
(assert (= n262 (* n32 n90)))
(declare-fun n263 () Int)
(assert (= n263 (* n33 n92)))
(declare-fun n264 () Int)
(assert (= n264 (* n32 n91)))
(declare-fun n265 () Int)
(assert (= n265 (* n33 n93)))
(declare-fun n266 () Int)
(assert (= n266 (* n34 n90)))
(declare-fun n267 () Int)
(assert (= n267 (* n35 n92)))
(declare-fun n268 () Int)
(assert (= n268 (* n34 n91)))
(declare-fun n269 () Int)
(assert (= n269 (* n35 n93)))
(declare-fun n270 () Int)
(assert (= n270 (+ n262 n263)))
(declare-fun n271 () Int)
(assert (= n271 (+ n264 n265)))
(declare-fun n272 () Int)
(assert (= n272 (+ n266 n267)))
(declare-fun n273 () Int)
(assert (= n273 (+ n268 n269)))
(assert (>= n240 n260))
(assert (>= n241 n261))
(assert (>= n250 n270))
(assert (>= n251 n271))
(assert (>= n252 n272))
(assert (>= n253 n273))
(declare-fun n274 () Int)
(assert (= n274 (* n70 n42)))
(declare-fun n275 () Int)
(assert (= n275 (* n71 n43)))
(declare-fun n276 () Int)
(assert (= n276 (* n72 n42)))
(declare-fun n277 () Int)
(assert (= n277 (* n73 n43)))
(declare-fun n278 () Int)
(assert (= n278 (+ n274 n275)))
(declare-fun n279 () Int)
(assert (= n279 (+ n276 n277)))
(declare-fun n280 () Int)
(assert (= n280 (+ n60 n278)))
(declare-fun n281 () Int)
(assert (= n281 (+ n61 n279)))
(declare-fun n282 () Int)
(assert (= n282 (* n70 n44)))
(declare-fun n283 () Int)
(assert (= n283 (* n71 n46)))
(declare-fun n284 () Int)
(assert (= n284 (* n70 n45)))
(declare-fun n285 () Int)
(assert (= n285 (* n71 n47)))
(declare-fun n286 () Int)
(assert (= n286 (* n72 n44)))
(declare-fun n287 () Int)
(assert (= n287 (* n73 n46)))
(declare-fun n288 () Int)
(assert (= n288 (* n72 n45)))
(declare-fun n289 () Int)
(assert (= n289 (* n73 n47)))
(declare-fun n290 () Int)
(assert (= n290 (+ n282 n283)))
(declare-fun n291 () Int)
(assert (= n291 (+ n284 n285)))
(declare-fun n292 () Int)
(assert (= n292 (+ n286 n287)))
(declare-fun n293 () Int)
(assert (= n293 (+ n288 n289)))
(declare-fun n294 () Int)
(assert (= n294 (* n44 n60)))
(declare-fun n295 () Int)
(assert (= n295 (* n45 n61)))
(declare-fun n296 () Int)
(assert (= n296 (* n46 n60)))
(declare-fun n297 () Int)
(assert (= n297 (* n47 n61)))
(declare-fun n298 () Int)
(assert (= n298 (+ n294 n295)))
(declare-fun n299 () Int)
(assert (= n299 (+ n296 n297)))
(declare-fun n300 () Int)
(assert (= n300 (+ n42 n298)))
(declare-fun n301 () Int)
(assert (= n301 (+ n43 n299)))
(declare-fun n302 () Int)
(assert (= n302 (* n44 n70)))
(declare-fun n303 () Int)
(assert (= n303 (* n45 n72)))
(declare-fun n304 () Int)
(assert (= n304 (* n44 n71)))
(declare-fun n305 () Int)
(assert (= n305 (* n45 n73)))
(declare-fun n306 () Int)
(assert (= n306 (* n46 n70)))
(declare-fun n307 () Int)
(assert (= n307 (* n47 n72)))
(declare-fun n308 () Int)
(assert (= n308 (* n46 n71)))
(declare-fun n309 () Int)
(assert (= n309 (* n47 n73)))
(declare-fun n310 () Int)
(assert (= n310 (+ n302 n303)))
(declare-fun n311 () Int)
(assert (= n311 (+ n304 n305)))
(declare-fun n312 () Int)
(assert (= n312 (+ n306 n307)))
(declare-fun n313 () Int)
(assert (= n313 (+ n308 n309)))
(assert (>= n280 n300))
(assert (>= n281 n301))
(assert (>= n290 n310))
(assert (>= n291 n311))
(assert (>= n292 n312))
(assert (>= n293 n313))
(declare-fun n314 () Int)
(assert (= n314 (* n38 n24)))
(declare-fun n315 () Int)
(assert (= n315 (* n39 n25)))
(declare-fun n316 () Int)
(assert (= n316 (* n40 n24)))
(declare-fun n317 () Int)
(assert (= n317 (* n41 n25)))
(declare-fun n318 () Int)
(assert (= n318 (+ n314 n315)))
(declare-fun n319 () Int)
(assert (= n319 (+ n316 n317)))
(declare-fun n320 () Int)
(assert (= n320 (+ n36 n318)))
(declare-fun n321 () Int)
(assert (= n321 (+ n37 n319)))
(declare-fun n322 () Int)
(assert (= n322 (* n38 n26)))
(declare-fun n323 () Int)
(assert (= n323 (* n39 n28)))
(declare-fun n324 () Int)
(assert (= n324 (* n38 n27)))
(declare-fun n325 () Int)
(assert (= n325 (* n39 n29)))
(declare-fun n326 () Int)
(assert (= n326 (* n40 n26)))
(declare-fun n327 () Int)
(assert (= n327 (* n41 n28)))
(declare-fun n328 () Int)
(assert (= n328 (* n40 n27)))
(declare-fun n329 () Int)
(assert (= n329 (* n41 n29)))
(declare-fun n330 () Int)
(assert (= n330 (+ n322 n323)))
(declare-fun n331 () Int)
(assert (= n331 (+ n324 n325)))
(declare-fun n332 () Int)
(assert (= n332 (+ n326 n327)))
(declare-fun n333 () Int)
(assert (= n333 (+ n328 n329)))
(declare-fun n334 () Int)
(assert (= n334 (* n32 n24)))
(declare-fun n335 () Int)
(assert (= n335 (* n33 n25)))
(declare-fun n336 () Int)
(assert (= n336 (* n34 n24)))
(declare-fun n337 () Int)
(assert (= n337 (* n35 n25)))
(declare-fun n338 () Int)
(assert (= n338 (+ n334 n335)))
(declare-fun n339 () Int)
(assert (= n339 (+ n336 n337)))
(declare-fun n340 () Int)
(assert (= n340 (+ n30 n338)))
(declare-fun n341 () Int)
(assert (= n341 (+ n31 n339)))
(declare-fun n342 () Int)
(assert (= n342 (* n32 n26)))
(declare-fun n343 () Int)
(assert (= n343 (* n33 n28)))
(declare-fun n344 () Int)
(assert (= n344 (* n32 n27)))
(declare-fun n345 () Int)
(assert (= n345 (* n33 n29)))
(declare-fun n346 () Int)
(assert (= n346 (* n34 n26)))
(declare-fun n347 () Int)
(assert (= n347 (* n35 n28)))
(declare-fun n348 () Int)
(assert (= n348 (* n34 n27)))
(declare-fun n349 () Int)
(assert (= n349 (* n35 n29)))
(declare-fun n350 () Int)
(assert (= n350 (+ n342 n343)))
(declare-fun n351 () Int)
(assert (= n351 (+ n344 n345)))
(declare-fun n352 () Int)
(assert (= n352 (+ n346 n347)))
(declare-fun n353 () Int)
(assert (= n353 (+ n348 n349)))
(assert (>= n320 n340))
(assert (>= n321 n341))
(assert (>= n330 n350))
(assert (>= n331 n351))
(assert (>= n332 n352))
(assert (>= n333 n353))
(declare-fun n354 () Int)
(assert (= n354 (* n50 n24)))
(declare-fun n355 () Int)
(assert (= n355 (* n51 n25)))
(declare-fun n356 () Int)
(assert (= n356 (* n52 n24)))
(declare-fun n357 () Int)
(assert (= n357 (* n53 n25)))
(declare-fun n358 () Int)
(assert (= n358 (+ n354 n355)))
(declare-fun n359 () Int)
(assert (= n359 (+ n356 n357)))
(declare-fun n360 () Int)
(assert (= n360 (+ n48 n358)))
(declare-fun n361 () Int)
(assert (= n361 (+ n49 n359)))
(declare-fun n362 () Int)
(assert (= n362 (* n50 n26)))
(declare-fun n363 () Int)
(assert (= n363 (* n51 n28)))
(declare-fun n364 () Int)
(assert (= n364 (* n50 n27)))
(declare-fun n365 () Int)
(assert (= n365 (* n51 n29)))
(declare-fun n366 () Int)
(assert (= n366 (* n52 n26)))
(declare-fun n367 () Int)
(assert (= n367 (* n53 n28)))
(declare-fun n368 () Int)
(assert (= n368 (* n52 n27)))
(declare-fun n369 () Int)
(assert (= n369 (* n53 n29)))
(declare-fun n370 () Int)
(assert (= n370 (+ n362 n363)))
(declare-fun n371 () Int)
(assert (= n371 (+ n364 n365)))
(declare-fun n372 () Int)
(assert (= n372 (+ n366 n367)))
(declare-fun n373 () Int)
(assert (= n373 (+ n368 n369)))
(declare-fun n374 () Int)
(assert (= n374 (* n110 n24)))
(declare-fun n375 () Int)
(assert (= n375 (* n111 n25)))
(declare-fun n376 () Int)
(assert (= n376 (* n112 n24)))
(declare-fun n377 () Int)
(assert (= n377 (* n113 n25)))
(declare-fun n378 () Int)
(assert (= n378 (+ n374 n375)))
(declare-fun n379 () Int)
(assert (= n379 (+ n376 n377)))
(declare-fun n380 () Int)
(assert (= n380 (+ n100 n378)))
(declare-fun n381 () Int)
(assert (= n381 (+ n101 n379)))
(declare-fun n382 () Int)
(assert (= n382 (* n110 n26)))
(declare-fun n383 () Int)
(assert (= n383 (* n111 n28)))
(declare-fun n384 () Int)
(assert (= n384 (* n110 n27)))
(declare-fun n385 () Int)
(assert (= n385 (* n111 n29)))
(declare-fun n386 () Int)
(assert (= n386 (* n112 n26)))
(declare-fun n387 () Int)
(assert (= n387 (* n113 n28)))
(declare-fun n388 () Int)
(assert (= n388 (* n112 n27)))
(declare-fun n389 () Int)
(assert (= n389 (* n113 n29)))
(declare-fun n390 () Int)
(assert (= n390 (+ n382 n383)))
(declare-fun n391 () Int)
(assert (= n391 (+ n384 n385)))
(declare-fun n392 () Int)
(assert (= n392 (+ n386 n387)))
(declare-fun n393 () Int)
(assert (= n393 (+ n388 n389)))
(assert (>= n360 n380))
(assert (>= n361 n381))
(assert (>= n370 n390))
(assert (>= n371 n391))
(assert (>= n372 n392))
(assert (>= n373 n393))
(declare-fun n394 () Int)
(assert (= n394 (* n26 n30)))
(declare-fun n395 () Int)
(assert (= n395 (* n27 n31)))
(declare-fun n396 () Int)
(assert (= n396 (* n28 n30)))
(declare-fun n397 () Int)
(assert (= n397 (* n29 n31)))
(declare-fun n398 () Int)
(assert (= n398 (+ n394 n395)))
(declare-fun n399 () Int)
(assert (= n399 (+ n396 n397)))
(declare-fun n400 () Int)
(assert (= n400 (+ n24 n398)))
(declare-fun n401 () Int)
(assert (= n401 (+ n25 n399)))
(declare-fun n402 () Int)
(assert (= n402 (* n26 n32)))
(declare-fun n403 () Int)
(assert (= n403 (* n27 n34)))
(declare-fun n404 () Int)
(assert (= n404 (* n26 n33)))
(declare-fun n405 () Int)
(assert (= n405 (* n27 n35)))
(declare-fun n406 () Int)
(assert (= n406 (* n28 n32)))
(declare-fun n407 () Int)
(assert (= n407 (* n29 n34)))
(declare-fun n408 () Int)
(assert (= n408 (* n28 n33)))
(declare-fun n409 () Int)
(assert (= n409 (* n29 n35)))
(declare-fun n410 () Int)
(assert (= n410 (+ n402 n403)))
(declare-fun n411 () Int)
(assert (= n411 (+ n404 n405)))
(declare-fun n412 () Int)
(assert (= n412 (+ n406 n407)))
(declare-fun n413 () Int)
(assert (= n413 (+ n408 n409)))
(declare-fun n414 () Int)
(assert (= n414 (* n26 n48)))
(declare-fun n415 () Int)
(assert (= n415 (* n27 n49)))
(declare-fun n416 () Int)
(assert (= n416 (* n28 n48)))
(declare-fun n417 () Int)
(assert (= n417 (* n29 n49)))
(declare-fun n418 () Int)
(assert (= n418 (+ n414 n415)))
(declare-fun n419 () Int)
(assert (= n419 (+ n416 n417)))
(declare-fun n420 () Int)
(assert (= n420 (+ n24 n418)))
(declare-fun n421 () Int)
(assert (= n421 (+ n25 n419)))
(declare-fun n422 () Int)
(assert (= n422 (* n26 n50)))
(declare-fun n423 () Int)
(assert (= n423 (* n27 n52)))
(declare-fun n424 () Int)
(assert (= n424 (* n26 n51)))
(declare-fun n425 () Int)
(assert (= n425 (* n27 n53)))
(declare-fun n426 () Int)
(assert (= n426 (* n28 n50)))
(declare-fun n427 () Int)
(assert (= n427 (* n29 n52)))
(declare-fun n428 () Int)
(assert (= n428 (* n28 n51)))
(declare-fun n429 () Int)
(assert (= n429 (* n29 n53)))
(declare-fun n430 () Int)
(assert (= n430 (+ n422 n423)))
(declare-fun n431 () Int)
(assert (= n431 (+ n424 n425)))
(declare-fun n432 () Int)
(assert (= n432 (+ n426 n427)))
(declare-fun n433 () Int)
(assert (= n433 (+ n428 n429)))
(assert (>= n400 n420))
(assert (>= n401 n421))
(assert (>= n410 n430))
(assert (>= n411 n431))
(assert (>= n412 n432))
(assert (>= n413 n433))
(declare-fun n434 () Int)
(assert (= n434 (* n26 n42)))
(declare-fun n435 () Int)
(assert (= n435 (* n27 n43)))
(declare-fun n436 () Int)
(assert (= n436 (* n28 n42)))
(declare-fun n437 () Int)
(assert (= n437 (* n29 n43)))
(declare-fun n438 () Int)
(assert (= n438 (+ n434 n435)))
(declare-fun n439 () Int)
(assert (= n439 (+ n436 n437)))
(declare-fun n440 () Int)
(assert (= n440 (+ n24 n438)))
(declare-fun n441 () Int)
(assert (= n441 (+ n25 n439)))
(declare-fun n442 () Int)
(assert (= n442 (* n26 n44)))
(declare-fun n443 () Int)
(assert (= n443 (* n27 n46)))
(declare-fun n444 () Int)
(assert (= n444 (* n26 n45)))
(declare-fun n445 () Int)
(assert (= n445 (* n27 n47)))
(declare-fun n446 () Int)
(assert (= n446 (* n28 n44)))
(declare-fun n447 () Int)
(assert (= n447 (* n29 n46)))
(declare-fun n448 () Int)
(assert (= n448 (* n28 n45)))
(declare-fun n449 () Int)
(assert (= n449 (* n29 n47)))
(declare-fun n450 () Int)
(assert (= n450 (+ n442 n443)))
(declare-fun n451 () Int)
(assert (= n451 (+ n444 n445)))
(declare-fun n452 () Int)
(assert (= n452 (+ n446 n447)))
(declare-fun n453 () Int)
(assert (= n453 (+ n448 n449)))
(declare-fun n454 () Int)
(assert (= n454 (* n26 n36)))
(declare-fun n455 () Int)
(assert (= n455 (* n27 n37)))
(declare-fun n456 () Int)
(assert (= n456 (* n28 n36)))
(declare-fun n457 () Int)
(assert (= n457 (* n29 n37)))
(declare-fun n458 () Int)
(assert (= n458 (+ n454 n455)))
(declare-fun n459 () Int)
(assert (= n459 (+ n456 n457)))
(declare-fun n460 () Int)
(assert (= n460 (+ n24 n458)))
(declare-fun n461 () Int)
(assert (= n461 (+ n25 n459)))
(declare-fun n462 () Int)
(assert (= n462 (* n26 n38)))
(declare-fun n463 () Int)
(assert (= n463 (* n27 n40)))
(declare-fun n464 () Int)
(assert (= n464 (* n26 n39)))
(declare-fun n465 () Int)
(assert (= n465 (* n27 n41)))
(declare-fun n466 () Int)
(assert (= n466 (* n28 n38)))
(declare-fun n467 () Int)
(assert (= n467 (* n29 n40)))
(declare-fun n468 () Int)
(assert (= n468 (* n28 n39)))
(declare-fun n469 () Int)
(assert (= n469 (* n29 n41)))
(declare-fun n470 () Int)
(assert (= n470 (+ n462 n463)))
(declare-fun n471 () Int)
(assert (= n471 (+ n464 n465)))
(declare-fun n472 () Int)
(assert (= n472 (+ n466 n467)))
(declare-fun n473 () Int)
(assert (= n473 (+ n468 n469)))
(assert (>= n440 n460))
(assert (>= n441 n461))
(assert (>= n450 n470))
(assert (>= n451 n471))
(assert (>= n452 n472))
(assert (>= n453 n473))
(assert true)
(assert (>= n70 1))
(assert (>= n73 1))
(assert (or (> n117 n127) (> n137 n147)))
(check-sat)
(exit)
